0 488
1 476
2 470
3 466
5 458
7 442
8 434
9 422
14 418
16 414
19 378
32 374
39 366
41 358
42 346
44 338
58 330
61 302
77 300
88 296
97 286
111 282
127 264
141 256
159 250
160 248
172 240
173 236
174 234
182 222
191 212
193 210
255 202
270 192
441 188
478 182
522 178
567 176
738 174
825 166
1195 162
2959 158
3293 146
6966 142
